SCIP Status        : solving was interrupted [time limit reached]
Total Time         :    3600.00
  solving          :    3600.00
  presolving       :       0.25 (included in solving)
  reading          :       0.00
  copying          :       1.58 (59 #copies) (minimal 0.00, maximal 0.07, average 0.03)
Original Problem   :
  Problem name     : bbbenchmark/g05_60.2.cut
  Variables        : 61 (60 binary, 0 integer, 0 implicit integer, 1 continuous)
  Constraints      : 1 initial, 1 maximal
  Objective        : minimize, 1 non-zeros (abs.min = 1, abs.max = 1)
Presolved Problem  :
  Problem name     : t_bbbenchmark/g05_60.2.cut
  Variables        : 946 (60 binary, 0 integer, 885 implicit integer, 1 continuous)
  Constraints      : 886 initial, 10889 maximal
  Objective        : minimize, 1 non-zeros (abs.min = 1, abs.max = 1)
  Nonzeros         : 3601 constraint, 122 clique table
Presolvers         :   ExecTime  SetupTime  Calls  FixedVars   AggrVars   ChgTypes  ChgBounds   AddHoles    DelCons    AddCons   ChgSides   ChgCoefs
  boundshift       :       0.00       0.00      0          0          0          0          0          0          0          0          0          0
  convertinttobin  :       0.00       0.00      0          0          0          0          0          0          0          0          0          0
  domcol           :       0.00       0.00      1          0          0          0          0          0          0          0          0          0
  dualagg          :       0.00       0.00      0          0          0          0          0          0          0          0          0          0
  dualcomp         :       0.00       0.00      1          0          0          0          0          0          0          0          0          0
  dualinfer        :       0.00       0.00      0          0          0          0          0          0          0          0          0          0
  dualsparsify     :       0.00       0.00      1          0          0          0          0          0          0          0          0          0
  gateextraction   :       0.00       0.00      0          0          0          0          0          0          0          0          0          0
  implics          :       0.00       0.00      2          0          0          0          0          0          0          0          0          0
  inttobinary      :       0.00       0.00      0          0          0          0          0          0          0          0          0          0
  qpkktref         :       0.00       0.00      0          0          0          0          0          0          0          0          0          0
  redvub           :       0.00       0.00      0          0          0          0          0          0          0          0          0          0
  sparsify         :       0.00       0.00      1          0          0          0          0          0          0          0          0          0
  stuffing         :       0.00       0.00      0          0          0          0          0          0          0          0          0          0
  trivial          :       0.00       0.00      4          0          0          0          0          0          0          0          0          0
  tworowbnd        :       0.00       0.00      0          0          0          0          0          0          0          0          0          0
  dualfix          :       0.00       0.00      4          0          0          0          0          0          0          0          0          0
  genvbounds       :       0.00       0.00      0          0          0          0          0          0          0          0          0          0
  probing          :       0.13       0.00      1          0          0          0          0          0          0          0          0          0
  pseudoobj        :       0.00       0.00      1          0          0          0          1          0          0          0          0          0
  symmetry         :       0.00       0.00      0          0          0          0          0          0          0          0          0          0
  vbounds          :       0.00       0.00      1          0          0          0          0          0          0          0          0          0
  and              :       0.01       0.00      2          0          0          0          0          0          0          0          0          0
  linear           :       0.00       0.00      2          0          0          0          0          0          0          0          0          0
  logicor          :       0.00       0.00      0          0          0          0          0          0          0          0          0          0
  nonlinear        :       0.09       0.01      5          0          0          0          1          0          0        885          0          0
  benders          :       0.00       0.00      0          0          0          0          0          0          0          0          0          0
  components       :       0.01       0.00      1          0          0          0          0          0          0          0          0          0
  root node        :          -          -      -          0          -          -         39          -          -          -          -          -
Constraints        :     Number  MaxNumber  #Separate #Propagate    #EnfoLP    #EnfoRelax  #EnfoPS    #Check   #ResProp    Cutoffs    DomReds       Cuts    Applied      Conss   Children
  benderslp        :          0          0          0          0      87737          0          0      25102          0          0          0          0          0          0          0
  integral         :          0          0          0          0      87737          0          0      25102          0          0       4275          0          0       1355     172896
  and              :        885        885     104191     593183          9          0          0         28     129069          3    2939576       1002        940          0          0
  linear           :          1+         3        200     593180          9          0          0         26          0          0          0          0          0          0          0
  logicor          :          0+     10001          0     154849          0          0          0          0        249        529         92          0          0          0          0
  benders          :          0          0          0          0          9          0          0         29          0          0          0          0          0          0          0
  countsols        :          0          0          0          0          9          0          0         29          0          0          0          0          0          0          0
  components       :          0          0          0          0          0          0          0          0          0          0          0          0          0          0          0
Constraint Timings :  TotalTime  SetupTime   Separate  Propagate     EnfoLP     EnfoPS     EnfoRelax   Check    ResProp    SB-Prop
  benderslp        :       0.10       0.00       0.00       0.00       0.05       0.00       0.00       0.05       0.00       0.00
  integral         :      37.81       0.00       0.00       0.00      37.76       0.00       0.00       0.05       0.00       0.00
  and              :      48.26       0.00      29.29      18.64       0.00       0.00       0.00       0.01       0.14       0.18
  linear           :       0.53       0.00       0.02       0.51       0.00       0.00       0.00       0.00       0.00       0.00
  logicor          :      21.32       0.00       0.00      21.31       0.00       0.00       0.00       0.00       0.00       0.01
  benders          :       0.00       0.00       0.00       0.00       0.00       0.00       0.00       0.00       0.00       0.00
  countsols        :       0.00       0.00       0.00       0.00       0.00       0.00       0.00       0.00       0.00       0.00
  components       :       0.15       0.00       0.00       0.15       0.00       0.00       0.00       0.00       0.00       0.00
Propagators        : #Propagate   #ResProp    Cutoffs    DomReds
  dualfix          :          4          0          0          0
  genvbounds       :          0          0          0          0
  nlobbt           :          0          0          0          0
  obbt             :          0          0          0          0
  probing          :          0          0          0          0
  pseudoobj        :     445426          0          0         39
  redcost          :     222296          0          0     329837
  rootredcost      :         17          0          0          0
  symmetry         :          0          0          0          0
  vbounds          :      44127          0          0          0
Propagator Timings :  TotalTime  SetupTime   Presolve  Propagate    ResProp    SB-Prop
  dualfix          :       0.00       0.00       0.00       0.00       0.00       0.00
  genvbounds       :       0.42       0.00       0.00       0.41       0.00       0.01
  nlobbt           :       0.00       0.00       0.00       0.00       0.00       0.00
  obbt             :       0.00       0.00       0.00       0.00       0.00       0.00
  probing          :       0.13       0.00       0.13       0.00       0.00       0.00
  pseudoobj        :       0.67       0.00       0.00       0.66       0.00       0.01
  redcost          :       6.65       0.00       0.00       6.65       0.00       0.00
  rootredcost      :       0.42       0.00       0.00       0.41       0.00       0.01
  symmetry         :       0.29       0.00       0.00       0.29       0.00       0.00
  vbounds          :       0.48       0.00       0.00       0.48       0.00       0.00
Conflict Analysis  :       Time      Calls    Success    DomReds  Conflicts   Literals    Reconvs ReconvLits   Dualrays   Nonzeros   LP Iters   (pool size: [10000,10000])
  propagation      :       0.00        532        409          -        470       30.3          0        0.0          -          -          -
  infeasible LP    :       0.00          0          0          -          0        0.0          0        0.0          2       58.5          0
  bound exceed. LP :      14.73       9943       7474          -      56060       37.8          0        0.0          0        0.0      53697
  strong branching :       0.00          0          0          -          0        0.0          0        0.0          -          -          0
  pseudo solution  :       0.00          0          0          -          0        0.0          0        0.0          -          -          -
  applied globally :       0.25          -          -          0      24598       37.7          -          -          2          -          -
  applied locally  :          -          -          -          0          0        0.0          -          -          0          -          -
Separators         :   ExecTime  SetupTime      Calls  RootCalls    Cutoffs    DomReds  FoundCuts ViaPoolAdd  DirectAdd    Applied ViaPoolApp  DirectApp      Conss
  cut pool         :       2.57          -      32805        231          -          -      24383     410047          -          -          -          -          -    (maximal pool size:       1485)
  aggregation      :     181.46       0.00       4811        200          0          0         25          1          0          1          1          0          0
  > cmir           :          -          -          -          -          -          -          -          1          0          1          1          0          -
  > flowcover      :          -          -          -          -          -          -          -          0          0          0          0          0          -
  > knapsackcover  :          -          -          -          -          -          -          -          0          0          0          0          0          -
  cgmip            :       0.00       0.00          0          0          0          0          0          0          0          0          0          0          0
  clique           :       0.00       0.00        200        200          0          0          0          0          0          0          0          0          0
  closecuts        :       0.00       0.00          0          0          0          0          0          0          0          0          0          0          0
  convexproj       :       0.00       0.00          0          0          0          0          0          0          0          0          0          0          0
  disjunctive      :       0.00       0.00          0          0          0          0          0          0          0          0          0          0          0
  eccuts           :       0.00       0.00          0          0          0          0          0          0          0          0          0          0          0
  gauge            :       0.00       0.00          0          0          0          0          0          0          0          0          0          0          0
  gomory           :       0.00       0.00          0          0          0          0          0          0          0          0          0          0          0
  > gomorymi       :          -          -          -          -          -          -          -          0          0          0          0          0          -
  > strongcg       :          -          -          -          -          -          -          -          0          0          0          0          0          -
  impliedbounds    :       0.13       0.00       4811        200          0          0          0          0          0          0          0          0          0
  interlattice     :       0.00       0.00          0          0          0          0          0          0          0          0          0          0          0
  interminor       :       0.00       0.00          0          0          0          0          0          0          0          0          0          0          0
  intersub         :       0.80       0.00        132        132          0          0        132          0        132        132          0        132          0
  intobj           :       0.00       0.00          0          0          0          0          0          0          0          0          0          0          0
  mcf              :       0.00       0.00          1          1          0          0          0          0          0          0          0          0          0
  minor            :       0.02       0.00          0          0          0          0          0          0          0          0          0          0          0
  mixing           :       0.00       0.00       4811        200          0          0          0          0          0          0          0          0          0
  oddcycle         :       0.00       0.00          0          0          0          0          0          0          0          0          0          0          0
  rapidlearning    :       0.04       0.00          0          0          0          0          0          0          0          0          0          0          0
  rlt              :       0.00       0.00         10         10          0          0          0          0          0          0          0          0          0
  zerohalf         :      16.88       0.00       3731         20          0          0      24358     410046          0      91540      91540          0          0
Cutselectors       :   ExecTime  SetupTime      Calls  RootCalls   Selected     Forced   Filtered  RootSelec   RootForc   RootFilt 
  hybrid           :       0.32       0.00      19810        201      92613          0     318568        362          0         27
Pricers            :   ExecTime  SetupTime      Calls       Vars
  problem variables:       0.00          -          0          0
Branching Rules    :   ExecTime  SetupTime   BranchLP  BranchExt   BranchPS    Cutoffs    DomReds       Cuts      Conss   Children
  allfullstrong    :       0.00       0.00          0          0          0          0          0          0          0          0
  cloud            :       0.00       0.00          0          0          0          0          0          0          0          0
  distribution     :       0.00       0.00          0          0          0          0          0          0          0          0
  fullstrong       :       0.00       0.00          0          0          0          0          0          0          0          0
  inference        :       0.00       0.00          0          0          0          0          0          0          0          0
  leastinf         :       0.00       0.00          0          0          0          0          0          0          0          0
  lookahead        :       0.00       0.00          0          0          0          0          0          0          0          0
  mostinf          :       0.00       0.00          0          0          0          0          0          0          0          0
  multaggr         :       0.00       0.00          0          0          0          0          0          0          0          0
  nodereopt        :       0.00       0.00          0          0          0          0          0          0          0          0
  pscost           :       0.00       0.00          0          0          0          0          0          0          0          0
  random           :       0.00       0.00          0          0          0          0          0          0          0          0
  relpscost        :      37.50       0.00      87728          0          0          0       4275          0       1682     172896
  vanillafullstrong:       0.00       0.00          0          0          0          0          0          0          0          0
Primal Heuristics  :   ExecTime  SetupTime      Calls      Found       Best
  LP solutions     :       0.02          -          -          9          9
  relax solutions  :       0.00          -          -          0          0
  pseudo solutions :       0.00          -          -          0          0
  strong branching :       0.00          -          -          1          1
  actconsdiving    :       0.00       0.00          0          0          0
  adaptivediving   :       2.82       0.00         78          0          0
  alns             :       2.43       0.00         26          3          3
  bound            :       0.00       0.00          0          0          0
  clique           :       0.00       0.00          1          0          0
  coefdiving       :       0.00       0.00          0          0          0
  completesol      :       0.00       0.00          0          0          0
  conflictdiving   :      13.69       0.00        511          0          0
  crossover        :       0.09       0.00          4          2          2
  dins             :       0.00       0.00          0          0          0
  distributiondivin:      31.21       0.00        510          0          0
  dps              :       0.00       0.00          0          0          0
  dualval          :       0.00       0.00          0          0          0
  farkasdiving     :       0.03       0.00          0          0          0
  feaspump         :       0.02       0.00          0          0          0
  fixandinfer      :       0.00       0.00          0          0          0
  fracdiving       :      18.14       0.00        510          0          0
  gins             :       0.02       0.00          0          0          0
  guideddiving     :      17.52       0.00        510          0          0
  indicator        :       0.20       0.00          0          0          0
  indicatordiving  :       0.00       0.00          0          0          0
  intdiving        :       0.00       0.00          0          0          0
  intshifting      :       0.14       0.00         21          0          0
  linesearchdiving :      17.04       0.00        510          0          0
  localbranching   :       0.00       0.00          0          0          0
  locks            :       0.01       0.00          1          0          0
  lpface           :       0.13       0.00          0          0          0
  mpec             :       0.93       0.00          1          0          0
  multistart       :       0.00       0.00          0          0          0
  mutation         :       0.00       0.00          0          0          0
  nlpdiving        :       2.63       0.00          8          0          0
  objpscostdiving  :      28.35       0.00         88          2          0
  octane           :       0.00       0.00          0          0          0
  ofins            :       0.11       0.00          0          0          0
  oneopt           :       0.08       0.00         27          0          0
  padm             :       0.00       0.00          0          0          0
  proximity        :       0.00       0.00          0          0          0
  pscostdiving     :      18.48       0.00        510          2          2
  randrounding     :       1.22       0.00      25069          0          0
  rens             :       0.00       0.00          0          0          0
  reoptsols        :       0.00       0.00          0          0          0
  repair           :       0.00       0.00          0          0          0
  rins             :       6.32       0.00         29          2          1
  rootsoldiving    :      31.24       0.00        116          2          0
  rounding         :       0.64       0.00       4508          0          0
  shiftandpropagate:       0.00       0.00          0          0          0
  shifting         :      38.98       0.00      20149          9          9
  simplerounding   :       0.13       0.00          0          0          0
  subnlp           :      75.67       0.00          0          0          0
  trivial          :       0.01       0.00          2          2          2
  trivialnegation  :       0.00       0.00          0          0          0
  trustregion      :       0.00       0.00          0          0          0
  trysol           :       0.19       0.00          0          0          0
  twoopt           :       0.00       0.00          0          0          0
  undercover       :       1.04       0.00          1          1          1
  vbounds          :       0.00       0.00          0          0          0
  veclendiving     :      10.63       0.00        510          0          0
  zeroobj          :       0.00       0.00          0          0          0
  zirounding       :       0.22       0.00       1000          0          0
  other solutions  :          -          -          -          0          -
Diving (single)    :      Calls      Nodes   LP Iters Backtracks  Conflicts   MinDepth   MaxDepth   AvgDepth  RoundSols  NLeafSols  MinSolDpt  MaxSolDpt  AvgSolDpt
  actconsdiving    :          0          -          -          -          -          -          -          -          -          -          -          -          -
  coefdiving       :          0          -          -          -          -          -          -          -          -          -          -          -          -
  conflictdiving   :        511       9498     130161        524       9359         24         47       33.0          0          -          -          -          -
  distributiondivin:        510       7074     225822        691       5570         23         37       28.0          0          -          -          -          -
  farkasdiving     :          0          -          -          -          -          -          -          -          -          -          -          -          -
  fracdiving       :        510      53170     178740        460       2859         29        254      118.9          0          -          -          -          -
  guideddiving     :        510      47479     184333        325       2685         26        221      107.7          0          -          -          -          -
  indicatordiving  :          0          -          -          -          -          -          -          -          -          -          -          -          -
  linesearchdiving :        510      12558     184337        666      10495         23         53       38.7          0          -          -          -          -
  pscostdiving     :        510       9539     206385        521       7673         24         45       33.2          0          2         42         42       42.0
  veclendiving     :        510       9403      90710        516      11592         28         47       32.9          0          -          -          -          -
Diving (adaptive)  :      Calls      Nodes   LP Iters Backtracks  Conflicts   MinDepth   MaxDepth   AvgDepth  RoundSols  NLeafSols  MinSolDpt  MaxSolDpt  AvgSolDpt
  actconsdiving    :         16        234       6614         25        179         25         33       28.4          0          -          -          -          -
  coefdiving       :         23        444       5467         24        567         29         37       32.6          0          -          -          -          -
  conflictdiving   :          0          -          -          -          -          -          -          -          -          -          -          -          -
  distributiondivin:          0          -          -          -          -          -          -          -          -          -          -          -          -
  farkasdiving     :          0          -          -          -          -          -          -          -          -          -          -          -          -
  fracdiving       :          2        239        607          0          0        131        137      134.0          0          -          -          -          -
  guideddiving     :          6        527       2168          4         43         52        153      101.5          0          -          -          -          -
  indicatordiving  :          0          -          -          -          -          -          -          -          -          -          -          -          -
  linesearchdiving :         11        315       5005         20        311         29         53       42.5          0          -          -          -          -
  pscostdiving     :          8        146       4111          8        133         23         36       32.0          0          -          -          -          -
  veclendiving     :         12        216       2077         12        251         29         36       32.4          0          -          -          -          -
Neighborhoods      :      Calls  SetupTime  SolveTime SolveNodes       Sols       Best       Exp3  EpsGreedy        UCB TgtFixRate  Opt  Inf Node Stal  Sol  Usr Othr Actv
  rens             :          3       0.16       0.04          4          0          0    0.00000   -1.00000    0.53702      0.437    0    3    0    0    0    0    0    1
  rins             :          3       0.10       0.02          5          0          0    0.00000   -1.00000    0.37079      0.550    0    2    0    0    0    0    1    1
  mutation         :          4       0.10       0.26         91          2          2    0.00000   -1.00000    0.52597      0.522    1    2    0    1    0    0    0    1
  localbranching   :          3       0.15       0.09         62          0          0    0.00000   -1.00000    0.46147      0.662    0    2    0    1    0    0    0    1
  crossover        :          4       0.28       0.18         45          0          0    0.00000   -1.00000    0.48673      0.353    0    4    0    0    0    0    0    1
  proximity        :          2       0.05       0.07         27          0          0    0.00000   -1.00000    0.51314      0.550    0    2    0    0    0    0    0    1
  zeroobjective    :          3       0.14       0.09         59          0          0    0.00000   -1.00000    0.46147      0.662    0    2    0    1    0    0    0    1
  dins             :          4       0.22       0.23        117          1          1    0.00000   -1.00000    0.49625      0.522    1    2    0    1    0    0    0    1
  trustregion      :          0       0.00       0.00          0          0          0    0.00000   -1.00000    1.00000      0.900    0    0    0    0    0    0    0    0
Expressions        :   #IntEval  IntEvalTi   #RevProp  RevPropTi    DomReds    Cutoffs  #Estimate  EstimTime  Branching  #Simplify SimplifyTi Simplified
  pow              :          0       0.00          0       0.00          0          0          0       0.00          0          0       0.00          0
  prod             :       3540       0.00          0       0.00          0          0          0       0.00          0       2655       0.00          0
  sum              :          8       0.00          2       0.00          0          0          0       0.00          0          3       0.01          2
  var              :       3327       0.00          0       0.00          0          0          0       0.00          0       6378       0.02          0
  varidx           :          0       0.00          0       0.00          0          0          0       0.00          0          0       0.00          0
LP                 :       Time      Calls Iterations  Iter/call   Iter/sec  Time-0-It Calls-0-It    ItLimit
  primal LP        :     182.70      16780          0       0.00       0.00     182.63      16780
  dual LP          :    2648.31     207654   19085010     105.67    7206.49       9.20      27040
  lex dual LP      :       0.00          0          0       0.00          -
  barrier LP       :       0.00          0          0       0.00          -       0.00          0
  resolve instable :       0.00          0          0       0.00          -
  diving/probing LP:     148.97      13284    1693773     127.50   11369.89
  strong branching :      21.22       2123     234857     110.63   11067.72          -          -         67
    (at root node) :          -         40      33824     845.60          -
  conflict analysis:       7.23       5483      53697       9.79    7426.97
NLP relaxation     :
  solve time       :       2.63 (8 calls)
  convexity        :  nonconvex (1 linear rows, 0 convex ineq., 0 nonconvex ineq., 885 nonlinear eq. or two-sided ineq.)
NLP Solvers        :  #Problems  ProblemTi    #Solves  SolveTime      #Iter  Time/Iter      #Okay #TimeLimit #IterLimit #LObjLimit #Interrupt  #NumError #EvalError  #OutOfMem #LicenseEr #OtherTerm   #GlobOpt    #LocOpt  #Feasible #LocInfeas #GlobInfea #Unbounded   #Unknown
  ipopt            :          2       4.70         11       3.58        343       0.01         11          0          0          0          0          0          0          0          0          0          0          0          0          3          0          0          8
B&B Tree           :
  number of runs   :          1
  nodes            :     159545 (86448 internal, 73097 leaves)
  feasible leaves  :          9
  infeas. leaves   :         20
  objective leaves :      73067
  nodes (total)    :     159545 (86448 internal, 73097 leaves)
  nodes left       :      13301
  max depth        :         35
  max depth (total):         35
  backtracks       :      39384 (24.7%)
  early backtracks :          0 (0.0%)
  nodes exc. ref.  :          0 (0.0%)
  delayed cutoffs  :          1
  repropagations   :         64 (206 domain reductions, 0 cutoffs)
  avg switch length:       4.14
  switching time   :     212.77
Estim. Tree Size   :    2342217
Estimation Tree    : 172897 nodes (159596 visited, 86448 internal, 73148 leaves, 13301 open), weight: 0.0457 completed 0.2836
Estimations        :      estim      value      trend resolution     smooth
  wbe              :    3201175          -          -          -          -
  tree-profile     :         -1          -          -          -          -
  gap              :     934647    0.89277    0.00003        128     920570
  tree-weight      :    2342218    0.04570    0.00011        128    2350322
  leaf-frequency   :     740309    0.45833    0.00002        128     796136
  ssg              :    1125584    0.57863   -0.00015        128    1111656
  open-nodes       :     319192 13301.00000    4.95466        128     318768
Root Node          :
  First LP value   : -1.00000000000000e+00
  First LP Iters   :        565 (18833.33 Iter/sec)
  First LP Time    :       0.03
  Final Dual Bound : -8.69576501270456e-01
  Final Root Iters :      13054
  Root LP Estimate : -9.12497717446367e-02
Solution           :
  Solutions found  :         35 (30 improvements)
  First Solution   : +1.00000000000000e+05   (in run 1, after 0 nodes, 0.02 seconds, depth 0, found by <trivial>)
  Gap First Sol.   :   infinite
  Gap Last Sol.    :      12.93 %
  Primal Bound     : -5.96610169491526e-01   (in run 1, after 133492 nodes, 2980.35 seconds, depth 24, found by <relaxation>)
  Dual Bound       : -6.68267419962336e-01
  Gap              :      12.01 %
Integrals          :      Total       Avg%
  primal-dual      :   58274.58      16.19
  primal-ref       :          -          - (not evaluated)
  dual-ref         :          -          - (not evaluated)
